(set-logic QF_S)
(declare-fun T_2 () Bool)
(declare-fun T_SELECT_1 () Bool)
(declare-fun I0_12 () Int)
(declare-fun I1_12 () Int)
(declare-fun I2_12 () Int)
(declare-fun PCTEMP_LHS_1 () Int)
(declare-fun T_3 () Int)
(declare-fun T_6 () Int)
(declare-fun T_7 () Int)
(declare-fun T0_2 () String)
(declare-fun T1_2 () String)
(declare-fun var_0xINPUT_15327 () String)
(assert (= var_0xINPUT_15327 (str.++ T0_2 T1_2)))
(assert (not (str.in.re T1_2 (str.to.re "GoogleAdServingTest="))))
(assert T_2)
(assert (= T_2 (not (= PCTEMP_LHS_1 (- 1)))))
(assert (= T_3 (+ PCTEMP_LHS_1 20)))
(assert (>= T_7 T_6))
(assert (= I2_12 I1_12))
(assert (<= T_7 I1_12))
(assert (= I0_12 (- T_7 T_6)))
(assert (>= T_6 0))
(assert (= T_6 (+ PCTEMP_LHS_1 20)))
(assert (= PCTEMP_LHS_1 (- 1)))
(assert (= T_SELECT_1 (not (= PCTEMP_LHS_1 (- 1)))))
(assert (= 0 (str.len T0_2))) ; len 0
(assert (not T_SELECT_1))
(check-sat)
